m = 16;
n = 8;

% graph =
% array2d(1..m, 1..2,
% [1, 2,
% 1, 3,
% 1, 4,
% 2, 3,
% 2, 4,
% 3, 4,

% 5, 6,
% 5, 7,
% 5, 8,
% 6, 7,
% 6, 8,
% 7, 8,

% 1, 5,
% 2, 6,
% 3, 7,
% 4, 8]);

graph=[|1, 2|
        1, 3|
        1, 4|
        2, 3|
        2, 4|
        3, 4|

        5, 6|
        5, 7|
        5, 8|
        6, 7|
        6, 8|
        7, 8|

        1, 5|
        2, 6|
        3, 7|
        4, 8|];